Minimize
  - 13 y_0 - 9 y_1 - 9 y_2 - 7 y_3 - 16 y_4 - 11 y_5 - 17 y_6 - 4 y_7
   - 23 y_8 - 5 y_9 - 4 y_10 - 22 y_11 - 6 y_12 - 15 y_13 - 5 y_14
   - 11 y_15 - 7 y_16 - 14 y_17 - 14 y_18 - 16 y_19 - 16 y_20 - 11 y_21
   - 19 y_22 - 22 y_23 - 23 y_24 - 16 y_25 - 17 y_26 - 3 y_27 - 17 y_28
   - 17 y_29 - 8 y_30 - 22 y_31 - 12 y_32 - 9 y_33 - 10 y_34 - 8 y_35
   - 13 y_36 - 21 y_37 - 6 y_38 - 7 y_39 - 13 y_40 - 14 y_41 - 18 y_42
   - 12 y_43 - 16 y_44 - 16 y_45 - 11 y_46 - 9 y_48 - 6 y_49 + 51 x_0_1
   + 31 x_0_3 + 26 x_0_5 + 44 x_0_6 + 47 x_0_10 + 51 x_0_13 + 37 x_0_15
   + 30 x_0_16 + 56 x_0_18 + 35 x_0_29 + 18 x_0_32 + 16 x_0_34 + 52 x_0_35
   + 49 x_0_44 + 14 x_0_45 + 30 x_1_3 + 17 x_1_12 + 80 x_1_17 + 89 x_1_18
   + 74 x_1_21 + 83 x_1_23 + 94 x_1_24 + 18 x_1_30 + 33 x_1_32 + 33 x_1_33
   + 22 x_1_36 + 73 x_1_41 + 55 x_1_49 + 40 x_2_12 + 36 x_2_13 + 50 x_2_15
   + 29 x_2_17 + 36 x_2_18 + 74 x_2_20 + 80 x_2_24 + 25 x_2_33 + 78 x_2_37
   + 50 x_2_42 + 41 x_2_44 + 18 x_2_49 + 54 x_3_4 + 77 x_3_8 + 74 x_3_11
   + 14 x_3_14 + 68 x_3_19 + 53 x_3_20 + 26 x_3_27 + 50 x_3_29 + 77 x_3_31
   + 11 x_3_33 + 36 x_3_36 + 45 x_3_41 + 38 x_3_43 + 45 x_3_45 + 47 x_3_46
   + 36 x_3_47 + 28 x_4_5 + 60 x_4_7 + 73 x_4_12 + 66 x_4_14 + 89 x_4_20
   + 32 x_4_22 + 66 x_4_27 + 66 x_4_29 + 41 x_4_34 + 65 x_4_37 + 16 x_4_42
   + 36 x_4_46 + 41 x_5_19 + 29 x_5_25 + 32 x_5_26 + 66 x_5_28 + 31 x_5_38
   + 15 x_5_40 + 39 x_5_42 + 9 x_5_43 + 32 x_5_45 + 54 x_5_47 + 23 x_5_48
   + 29 x_5_49 + 86 x_6_17 + 87 x_6_21 + 52 x_6_23 + 65 x_6_24 + 7 x_6_28
   + 33 x_6_32 + 20 x_6_36 + 51 x_6_45 + 83 x_6_47 + 87 x_6_48 + 5 x_7_9
   + 56 x_7_13 + 17 x_7_16 + 95 x_7_24 + 58 x_7_25 + 9 x_7_27 + 26 x_7_30
   + 28 x_7_33 + 15 x_7_39 + 47 x_7_41 + 41 x_7_43 + 93 x_8_9 + 90 x_8_14
   + 48 x_8_26 + 51 x_8_28 + 80 x_8_30 + 38 x_8_42 + 73 x_8_44 + 36 x_8_45
   + 113 x_8_47 + 74 x_9_20 + 58 x_9_25 + 72 x_9_29 + 31 x_9_30 + 90 x_9_31
   + 13 x_9_39 + 45 x_9_41 + 68 x_9_42 + 58 x_9_44 + 24 x_9_47 + 91 x_10_11
   + 66 x_10_20 + 97 x_10_24 + 67 x_10_29 + 40 x_10_32 + 28 x_10_33
   + 52 x_10_41 + 73 x_10_42 + 60 x_10_45 + 45 x_10_46 + 88 x_11_14
   + 70 x_11_15 + 74 x_11_16 + 82 x_11_19 + 79 x_11_21 + 52 x_11_28
   + 46 x_11_29 + 64 x_11_33 + 69 x_11_36 + 78 x_11_39 + 65 x_11_40
   + 60 x_11_43 + 32 x_11_45 + 76 x_12_13 + 10 x_12_14 + 48 x_12_20
   + 60 x_12_21 + 11 x_12_30 + 33 x_12_32 + 52 x_12_35 + 30 x_12_47
   + 81 x_13_15 + 54 x_13_16 + 104 x_13_20 + 19 x_13_21 + 60 x_13_27
   + 86 x_13_29 + 70 x_13_30 + 68 x_13_31 + 64 x_13_32 + 88 x_13_36
   + 24 x_13_43 + 50 x_13_45 + 75 x_13_47 + 87 x_14_23 + 95 x_14_24
   + 61 x_14_25 + 90 x_14_31 + 24 x_14_47 + 72 x_15_17 + 25 x_15_20
   + 62 x_15_22 + 19 x_15_30 + 76 x_15_31 + 31 x_15_34 + 69 x_15_42
   + 67 x_15_48 + 45 x_16_17 + 54 x_16_18 + 63 x_16_19 + 38 x_16_21
   + 52 x_16_29 + 24 x_16_32 + 15 x_16_39 + 39 x_16_40 + 40 x_16_41
   + 57 x_16_42 + 19 x_17_19 + 95 x_17_20 + 26 x_17_26 + 62 x_17_30
   + 52 x_17_38 + 34 x_17_39 + 11 x_17_41 + 36 x_17_42 + 12 x_17_44
   + 42 x_17_45 + 26 x_17_48 + 41 x_17_49 + 12 x_18_19 + 66 x_18_22
   + 89 x_18_23 + 50 x_18_25 + 40 x_18_26 + 56 x_18_27 + 77 x_18_31
   + 59 x_18_33 + 53 x_18_34 + 21 x_18_40 + 29 x_18_43 + 14 x_18_46
   + 26 x_19_21 + 65 x_19_22 + 89 x_19_23 + 39 x_19_26 + 103 x_19_28
   + 96 x_19_29 + 50 x_19_39 + 30 x_19_41 + 49 x_19_42 + 34 x_19_43
   + 14 x_19_44 + 82 x_19_47 + 36 x_19_48 + 54 x_19_49 + 73 x_20_25
   + 88 x_20_26 + 75 x_20_27 + 43 x_20_30 + 85 x_20_31 + 49 x_20_33
   + 54 x_20_34 + 64 x_20_45 + 78 x_20_47 + 81 x_20_49 + 61 x_21_22
   + 86 x_21_28 + 75 x_21_31 + 17 x_21_35 + 44 x_21_38 + 21 x_21_41
   + 28 x_21_49 + 24 x_22_23 + 45 x_22_29 + 16 x_22_31 + 45 x_22_32
   + 74 x_22_35 + 41 x_22_41 + 42 x_22_43 + 51 x_22_44 + 96 x_22_47
   + 50 x_23_26 + 45 x_23_28 + 60 x_23_34 + 64 x_23_43 + 75 x_23_44
   + 90 x_23_48 + 40 x_24_25 + 47 x_24_26 + 63 x_24_32 + 76 x_24_36
   + 30 x_24_37 + 84 x_24_39 + 69 x_24_40 + 36 x_24_42 + 87 x_24_46
   + 117 x_24_47 + 91 x_24_48 + 66 x_25_27 + 32 x_25_31 + 38 x_25_33
   + 47 x_25_37 + 52 x_25_38 + 45 x_25_39 + 24 x_25_43 + 37 x_25_44
   + 63 x_26_29 + 54 x_26_35 + 60 x_26_38 + 24 x_26_40 + 10 x_26_42
   + 23 x_26_43 + 24 x_26_44 + 98 x_27_31 + 60 x_27_36 + 22 x_27_39
   + 50 x_27_40 + 54 x_27_41 + 77 x_27_42 + 66 x_27_45 + 32 x_27_48
   + 8 x_28_29 + 48 x_28_30 + 89 x_28_35 + 24 x_28_36 + 31 x_28_37
   + 77 x_28_40 + 87 x_28_47 + 46 x_29_30 + 55 x_29_31 + 28 x_29_32
   + 41 x_29_33 + 66 x_29_41 + 83 x_29_44 + 81 x_29_48 + 82 x_30_31
   + 50 x_30_35 + 69 x_30_37 + 32 x_30_39 + 68 x_30_42 + 73 x_30_44
   + 59 x_30_46 + 51 x_30_48 + 60 x_31_32 + 66 x_31_33 + 61 x_31_34
   + 88 x_31_35 + 82 x_31_38 + 53 x_31_41 + 50 x_32_42 + 64 x_32_44
   + 58 x_32_46 + 58 x_32_47 + 54 x_32_48 + 44 x_33_35 + 32 x_33_36
   + 59 x_33_37 + 16 x_33_38 + 33 x_33_43 + 58 x_33_44 + 36 x_33_49
   + 41 x_34_35 + 38 x_34_36 + 34 x_34_40 + 29 x_34_45 + 43 x_34_46
   + 51 x_34_47 + 30 x_35_40 + 63 x_35_42 + 60 x_35_45 + 40 x_36_38
   + 70 x_36_41 + 88 x_36_44 + 75 x_36_48 + 65 x_36_49 + 75 x_37_38
   + 51 x_37_42 + 106 x_37_47 + 93 x_37_48 + 93 x_37_49 + 47 x_38_41
   + 38 x_38_48 + 29 x_39_40 + 32 x_39_41 + 14 x_39_49 + 6 x_40_41
   + 36 x_40_45 + 18 x_41_44 + 24 x_41_46 + 21 x_42_45 + 25 x_43_44
   + 37 x_43_49 + 26 x_44_46 + 81 x_44_47 + 79 x_45_47 + 57 x_46_47
   + 11 x_46_48 + 18 x_48_49 + 620 Constant
Subject To
 c_0: y_7 = 1
 c_1_0: y_0 >= 1
 c_1_1: y_1 >= 1
 c_1_2: y_2 + y_39 >= 1
 c_1_3: y_3 + y_16 + y_38 >= 1
 c_1_4: y_4 + y_26 >= 1
 c_1_5: y_5 + y_43 >= 1
 c_1_6: y_6 + y_28 >= 1
 c_1_7: y_7 + y_9 + y_10 + y_27 >= 1
 c_1_8: y_8 + y_11 + y_23 + y_24 >= 1
 c_1_9: y_7 + y_9 + y_27 + y_49 >= 1
 c_1_10: y_7 + y_10 + y_14 + y_27 >= 1
 c_1_11: y_8 + y_11 + y_23 + y_24 >= 1
 c_1_12: y_12 + y_14 >= 1
 c_1_13: y_13 + y_17 + y_18 + y_19 + y_44 >= 1
 c_1_14: y_10 + y_12 + y_14 + y_38 >= 1
 c_1_15: y_15 + y_36 >= 1
 c_1_16: y_3 + y_16 + y_38 >= 1
 c_1_17: y_13 + y_17 + y_40 >= 1
 c_1_18: y_13 + y_18 >= 1
 c_1_19: y_13 + y_19 >= 1
 c_1_20: y_20 >= 1
 c_1_21: y_21 + y_46 >= 1
 c_1_22: y_22 >= 1
 c_1_23: y_8 + y_11 + y_23 >= 1
 c_1_24: y_8 + y_11 + y_24 >= 1
 c_1_25: y_25 + y_45 >= 1
 c_1_26: y_4 + y_26 + y_42 >= 1
 c_1_27: y_7 + y_9 + y_10 + y_27 >= 1
 c_1_28: y_6 + y_28 + y_29 >= 1
 c_1_29: y_28 + y_29 >= 1
 c_1_30: y_30 >= 1
 c_1_31: y_31 >= 1
 c_1_32: y_32 >= 1
 c_1_33: y_33 + y_34 >= 1
 c_1_34: y_33 + y_34 >= 1
 c_1_35: y_35 + y_48 >= 1
 c_1_36: y_15 + y_36 >= 1
 c_1_37: y_37 >= 1
 c_1_38: y_3 + y_14 + y_16 + y_38 >= 1
 c_1_39: y_2 + y_39 >= 1
 c_1_40: y_17 + y_40 + y_41 + y_43 >= 1
 c_1_41: y_40 + y_41 + y_43 >= 1
 c_1_42: y_26 + y_42 >= 1
 c_1_43: y_5 + y_40 + y_41 + y_43 >= 1
 c_1_44: y_13 + y_44 >= 1
 c_1_45: y_25 + y_45 >= 1
 c_1_46: y_21 + y_46 >= 1
 c_1_47: y_47 >= 1
 c_1_48: y_35 + y_48 >= 1
 c_1_49: y_9 + y_49 >= 1
 c_2_0: - 2 y_0 + x_0_1 + x_0_3 + x_0_5 + x_0_6 + x_0_10 + x_0_13 + x_0_15
   + x_0_16 + x_0_18 + x_0_29 + x_0_32 + x_0_34 + x_0_35 + x_0_44 + x_0_45
   = 0
 c_2_1: - 2 y_1 + x_0_1 + x_1_3 + x_1_12 + x_1_17 + x_1_18 + x_1_21
   + x_1_23 + x_1_24 + x_1_30 + x_1_32 + x_1_33 + x_1_36 + x_1_41 + x_1_49
   = 0
 c_2_2: - 2 y_2 + x_2_12 + x_2_13 + x_2_15 + x_2_17 + x_2_18 + x_2_20
   + x_2_24 + x_2_33 + x_2_37 + x_2_42 + x_2_44 + x_2_49 = 0
 c_2_3: - 2 y_3 + x_0_3 + x_1_3 + x_3_4 + x_3_8 + x_3_11 + x_3_14 + x_3_19
   + x_3_20 + x_3_27 + x_3_29 + x_3_31 + x_3_33 + x_3_36 + x_3_41 + x_3_43
   + x_3_45 + x_3_46 + x_3_47 = 0
 c_2_4: - 2 y_4 + x_3_4 + x_4_5 + x_4_7 + x_4_12 + x_4_14 + x_4_20 + x_4_22
   + x_4_27 + x_4_29 + x_4_34 + x_4_37 + x_4_42 + x_4_46 = 0
 c_2_5: - 2 y_5 + x_0_5 + x_4_5 + x_5_19 + x_5_25 + x_5_26 + x_5_28
   + x_5_38 + x_5_40 + x_5_42 + x_5_43 + x_5_45 + x_5_47 + x_5_48 + x_5_49
   = 0
 c_2_6: - 2 y_6 + x_0_6 + x_6_17 + x_6_21 + x_6_23 + x_6_24 + x_6_28
   + x_6_32 + x_6_36 + x_6_45 + x_6_47 + x_6_48 = 0
 c_2_7: - 2 y_7 + x_4_7 + x_7_9 + x_7_13 + x_7_16 + x_7_24 + x_7_25
   + x_7_27 + x_7_30 + x_7_33 + x_7_39 + x_7_41 + x_7_43 = 0
 c_2_8: - 2 y_8 + x_3_8 + x_8_9 + x_8_14 + x_8_26 + x_8_28 + x_8_30
   + x_8_42 + x_8_44 + x_8_45 + x_8_47 = 0
 c_2_9: - 2 y_9 + x_7_9 + x_8_9 + x_9_20 + x_9_25 + x_9_29 + x_9_30
   + x_9_31 + x_9_39 + x_9_41 + x_9_42 + x_9_44 + x_9_47 = 0
 c_2_10: - 2 y_10 + x_0_10 + x_10_11 + x_10_20 + x_10_24 + x_10_29
   + x_10_32 + x_10_33 + x_10_41 + x_10_42 + x_10_45 + x_10_46 = 0
 c_2_11: - 2 y_11 + x_3_11 + x_10_11 + x_11_14 + x_11_15 + x_11_16
   + x_11_19 + x_11_21 + x_11_28 + x_11_29 + x_11_33 + x_11_36 + x_11_39
   + x_11_40 + x_11_43 + x_11_45 = 0
 c_2_12: - 2 y_12 + x_1_12 + x_2_12 + x_4_12 + x_12_13 + x_12_14 + x_12_20
   + x_12_21 + x_12_30 + x_12_32 + x_12_35 + x_12_47 = 0
 c_2_13: - 2 y_13 + x_0_13 + x_2_13 + x_7_13 + x_12_13 + x_13_15 + x_13_16
   + x_13_20 + x_13_21 + x_13_27 + x_13_29 + x_13_30 + x_13_31 + x_13_32
   + x_13_36 + x_13_43 + x_13_45 + x_13_47 = 0
 c_2_14: - 2 y_14 + x_3_14 + x_4_14 + x_8_14 + x_11_14 + x_12_14 + x_14_23
   + x_14_24 + x_14_25 + x_14_31 + x_14_47 = 0
 c_2_15: - 2 y_15 + x_0_15 + x_2_15 + x_11_15 + x_13_15 + x_15_17 + x_15_20
   + x_15_22 + x_15_30 + x_15_31 + x_15_34 + x_15_42 + x_15_48 = 0
 c_2_16: - 2 y_16 + x_0_16 + x_7_16 + x_11_16 + x_13_16 + x_16_17 + x_16_18
   + x_16_19 + x_16_21 + x_16_29 + x_16_32 + x_16_39 + x_16_40 + x_16_41
   + x_16_42 = 0
 c_2_17: - 2 y_17 + x_1_17 + x_2_17 + x_6_17 + x_15_17 + x_16_17 + x_17_19
   + x_17_20 + x_17_26 + x_17_30 + x_17_38 + x_17_39 + x_17_41 + x_17_42
   + x_17_44 + x_17_45 + x_17_48 + x_17_49 = 0
 c_2_18: - 2 y_18 + x_0_18 + x_1_18 + x_2_18 + x_16_18 + x_18_19 + x_18_22
   + x_18_23 + x_18_25 + x_18_26 + x_18_27 + x_18_31 + x_18_33 + x_18_34
   + x_18_40 + x_18_43 + x_18_46 = 0
 c_2_19: - 2 y_19 + x_3_19 + x_5_19 + x_11_19 + x_16_19 + x_17_19 + x_18_19
   + x_19_21 + x_19_22 + x_19_23 + x_19_26 + x_19_28 + x_19_29 + x_19_39
   + x_19_41 + x_19_42 + x_19_43 + x_19_44 + x_19_47 + x_19_48 + x_19_49
   = 0
 c_2_20: - 2 y_20 + x_2_20 + x_3_20 + x_4_20 + x_9_20 + x_10_20 + x_12_20
   + x_13_20 + x_15_20 + x_17_20 + x_20_25 + x_20_26 + x_20_27 + x_20_30
   + x_20_31 + x_20_33 + x_20_34 + x_20_45 + x_20_47 + x_20_49 = 0
 c_2_21: - 2 y_21 + x_1_21 + x_6_21 + x_11_21 + x_12_21 + x_13_21 + x_16_21
   + x_19_21 + x_21_22 + x_21_28 + x_21_31 + x_21_35 + x_21_38 + x_21_41
   + x_21_49 = 0
 c_2_22: - 2 y_22 + x_4_22 + x_15_22 + x_18_22 + x_19_22 + x_21_22
   + x_22_23 + x_22_29 + x_22_31 + x_22_32 + x_22_35 + x_22_41 + x_22_43
   + x_22_44 + x_22_47 = 0
 c_2_23: - 2 y_23 + x_1_23 + x_6_23 + x_14_23 + x_18_23 + x_19_23 + x_22_23
   + x_23_26 + x_23_28 + x_23_34 + x_23_43 + x_23_44 + x_23_48 = 0
 c_2_24: - 2 y_24 + x_1_24 + x_2_24 + x_6_24 + x_7_24 + x_10_24 + x_14_24
   + x_24_25 + x_24_26 + x_24_32 + x_24_36 + x_24_37 + x_24_39 + x_24_40
   + x_24_42 + x_24_46 + x_24_47 + x_24_48 = 0
 c_2_25: - 2 y_25 + x_5_25 + x_7_25 + x_9_25 + x_14_25 + x_18_25 + x_20_25
   + x_24_25 + x_25_27 + x_25_31 + x_25_33 + x_25_37 + x_25_38 + x_25_39
   + x_25_43 + x_25_44 = 0
 c_2_26: - 2 y_26 + x_5_26 + x_8_26 + x_17_26 + x_18_26 + x_19_26 + x_20_26
   + x_23_26 + x_24_26 + x_26_29 + x_26_35 + x_26_38 + x_26_40 + x_26_42
   + x_26_43 + x_26_44 = 0
 c_2_27: - 2 y_27 + x_3_27 + x_4_27 + x_7_27 + x_13_27 + x_18_27 + x_20_27
   + x_25_27 + x_27_31 + x_27_36 + x_27_39 + x_27_40 + x_27_41 + x_27_42
   + x_27_45 + x_27_48 = 0
 c_2_28: - 2 y_28 + x_5_28 + x_6_28 + x_8_28 + x_11_28 + x_19_28 + x_21_28
   + x_23_28 + x_28_29 + x_28_30 + x_28_35 + x_28_36 + x_28_37 + x_28_40
   + x_28_47 = 0
 c_2_29: - 2 y_29 + x_0_29 + x_3_29 + x_4_29 + x_9_29 + x_10_29 + x_11_29
   + x_13_29 + x_16_29 + x_19_29 + x_22_29 + x_26_29 + x_28_29 + x_29_30
   + x_29_31 + x_29_32 + x_29_33 + x_29_41 + x_29_44 + x_29_48 = 0
 c_2_30: - 2 y_30 + x_1_30 + x_7_30 + x_8_30 + x_9_30 + x_12_30 + x_13_30
   + x_15_30 + x_17_30 + x_20_30 + x_28_30 + x_29_30 + x_30_31 + x_30_35
   + x_30_37 + x_30_39 + x_30_42 + x_30_44 + x_30_46 + x_30_48 = 0
 c_2_31: - 2 y_31 + x_3_31 + x_9_31 + x_13_31 + x_14_31 + x_15_31 + x_18_31
   + x_20_31 + x_21_31 + x_22_31 + x_25_31 + x_27_31 + x_29_31 + x_30_31
   + x_31_32 + x_31_33 + x_31_34 + x_31_35 + x_31_38 + x_31_41 = 0
 c_2_32: - 2 y_32 + x_0_32 + x_1_32 + x_6_32 + x_10_32 + x_12_32 + x_13_32
   + x_16_32 + x_22_32 + x_24_32 + x_29_32 + x_31_32 + x_32_42 + x_32_44
   + x_32_46 + x_32_47 + x_32_48 = 0
 c_2_33: - 2 y_33 + x_1_33 + x_2_33 + x_3_33 + x_7_33 + x_10_33 + x_11_33
   + x_18_33 + x_20_33 + x_25_33 + x_29_33 + x_31_33 + x_33_35 + x_33_36
   + x_33_37 + x_33_38 + x_33_43 + x_33_44 + x_33_49 = 0
 c_2_34: - 2 y_34 + x_0_34 + x_4_34 + x_15_34 + x_18_34 + x_20_34 + x_23_34
   + x_31_34 + x_34_35 + x_34_36 + x_34_40 + x_34_45 + x_34_46 + x_34_47
   = 0
 c_2_35: - 2 y_35 + x_0_35 + x_12_35 + x_21_35 + x_22_35 + x_26_35
   + x_28_35 + x_30_35 + x_31_35 + x_33_35 + x_34_35 + x_35_40 + x_35_42
   + x_35_45 = 0
 c_2_36: - 2 y_36 + x_1_36 + x_3_36 + x_6_36 + x_11_36 + x_13_36 + x_24_36
   + x_27_36 + x_28_36 + x_33_36 + x_34_36 + x_36_38 + x_36_41 + x_36_44
   + x_36_48 + x_36_49 = 0
 c_2_37: - 2 y_37 + x_2_37 + x_4_37 + x_24_37 + x_25_37 + x_28_37 + x_30_37
   + x_33_37 + x_37_38 + x_37_42 + x_37_47 + x_37_48 + x_37_49 = 0
 c_2_38: - 2 y_38 + x_5_38 + x_17_38 + x_21_38 + x_25_38 + x_26_38
   + x_31_38 + x_33_38 + x_36_38 + x_37_38 + x_38_41 + x_38_48 = 0
 c_2_39: - 2 y_39 + x_7_39 + x_9_39 + x_11_39 + x_16_39 + x_17_39 + x_19_39
   + x_24_39 + x_25_39 + x_27_39 + x_30_39 + x_39_40 + x_39_41 + x_39_49
   = 0
 c_2_40: - 2 y_40 + x_5_40 + x_11_40 + x_16_40 + x_18_40 + x_24_40
   + x_26_40 + x_27_40 + x_28_40 + x_34_40 + x_35_40 + x_39_40 + x_40_41
   + x_40_45 = 0
 c_2_41: - 2 y_41 + x_1_41 + x_3_41 + x_7_41 + x_9_41 + x_10_41 + x_16_41
   + x_17_41 + x_19_41 + x_21_41 + x_22_41 + x_27_41 + x_29_41 + x_31_41
   + x_36_41 + x_38_41 + x_39_41 + x_40_41 + x_41_44 + x_41_46 = 0
 c_2_42: - 2 y_42 + x_2_42 + x_4_42 + x_5_42 + x_8_42 + x_9_42 + x_10_42
   + x_15_42 + x_16_42 + x_17_42 + x_19_42 + x_24_42 + x_26_42 + x_27_42
   + x_30_42 + x_32_42 + x_35_42 + x_37_42 + x_42_45 = 0
 c_2_43: - 2 y_43 + x_3_43 + x_5_43 + x_7_43 + x_11_43 + x_13_43 + x_18_43
   + x_19_43 + x_22_43 + x_23_43 + x_25_43 + x_26_43 + x_33_43 + x_43_44
   + x_43_49 = 0
 c_2_44: - 2 y_44 + x_0_44 + x_2_44 + x_8_44 + x_9_44 + x_17_44 + x_19_44
   + x_22_44 + x_23_44 + x_25_44 + x_26_44 + x_29_44 + x_30_44 + x_32_44
   + x_33_44 + x_36_44 + x_41_44 + x_43_44 + x_44_46 + x_44_47 = 0
 c_2_45: - 2 y_45 + x_0_45 + x_3_45 + x_5_45 + x_6_45 + x_8_45 + x_10_45
   + x_11_45 + x_13_45 + x_17_45 + x_20_45 + x_27_45 + x_34_45 + x_35_45
   + x_40_45 + x_42_45 + x_45_47 = 0
 c_2_46: - 2 y_46 + x_3_46 + x_4_46 + x_10_46 + x_18_46 + x_24_46 + x_30_46
   + x_32_46 + x_34_46 + x_41_46 + x_44_46 + x_46_47 + x_46_48 = 0
 c_2_47: - 2 y_47 + x_3_47 + x_5_47 + x_6_47 + x_8_47 + x_9_47 + x_12_47
   + x_13_47 + x_14_47 + x_19_47 + x_20_47 + x_22_47 + x_24_47 + x_28_47
   + x_32_47 + x_34_47 + x_37_47 + x_44_47 + x_45_47 + x_46_47 = 0
 c_2_48: - 2 y_48 + x_5_48 + x_6_48 + x_15_48 + x_17_48 + x_19_48 + x_23_48
   + x_24_48 + x_27_48 + x_29_48 + x_30_48 + x_32_48 + x_36_48 + x_37_48
   + x_38_48 + x_46_48 + x_48_49 = 0
 c_2_49: - 2 y_49 + x_1_49 + x_2_49 + x_5_49 + x_17_49 + x_19_49 + x_20_49
   + x_21_49 + x_33_49 + x_36_49 + x_37_49 + x_39_49 + x_43_49 + x_48_49
   = 0
Bounds
 Constant = 1
Binaries
 y_0 y_1 y_2 y_3 y_4 y_5 y_6 y_7 y_8 y_9 y_10 y_11 y_12 y_13 y_14 y_15 y_16
 y_17 y_18 y_19 y_20 y_21 y_22 y_23 y_24 y_25 y_26 y_27 y_28 y_29 y_30 y_31
 y_32 y_33 y_34 y_35 y_36 y_37 y_38 y_39 y_40 y_41 y_42 y_43 y_44 y_45 y_46
 y_47 y_48 y_49 x_0_1 x_0_3 x_0_5 x_0_6 x_0_10 x_0_13 x_0_15 x_0_16 x_0_18
 x_0_29 x_0_32 x_0_34 x_0_35 x_0_44 x_0_45 x_1_3 x_1_12 x_1_17 x_1_18
 x_1_21 x_1_23 x_1_24 x_1_30 x_1_32 x_1_33 x_1_36 x_1_41 x_1_49 x_2_12
 x_2_13 x_2_15 x_2_17 x_2_18 x_2_20 x_2_24 x_2_33 x_2_37 x_2_42 x_2_44
 x_2_49 x_3_4 x_3_8 x_3_11 x_3_14 x_3_19 x_3_20 x_3_27 x_3_29 x_3_31 x_3_33
 x_3_36 x_3_41 x_3_43 x_3_45 x_3_46 x_3_47 x_4_5 x_4_7 x_4_12 x_4_14 x_4_20
 x_4_22 x_4_27 x_4_29 x_4_34 x_4_37 x_4_42 x_4_46 x_5_19 x_5_25 x_5_26
 x_5_28 x_5_38 x_5_40 x_5_42 x_5_43 x_5_45 x_5_47 x_5_48 x_5_49 x_6_17
 x_6_21 x_6_23 x_6_24 x_6_28 x_6_32 x_6_36 x_6_45 x_6_47 x_6_48 x_7_9
 x_7_13 x_7_16 x_7_24 x_7_25 x_7_27 x_7_30 x_7_33 x_7_39 x_7_41 x_7_43
 x_8_9 x_8_14 x_8_26 x_8_28 x_8_30 x_8_42 x_8_44 x_8_45 x_8_47 x_9_20
 x_9_25 x_9_29 x_9_30 x_9_31 x_9_39 x_9_41 x_9_42 x_9_44 x_9_47 x_10_11
 x_10_20 x_10_24 x_10_29 x_10_32 x_10_33 x_10_41 x_10_42 x_10_45 x_10_46
 x_11_14 x_11_15 x_11_16 x_11_19 x_11_21 x_11_28 x_11_29 x_11_33 x_11_36
 x_11_39 x_11_40 x_11_43 x_11_45 x_12_13 x_12_14 x_12_20 x_12_21 x_12_30
 x_12_32 x_12_35 x_12_47 x_13_15 x_13_16 x_13_20 x_13_21 x_13_27 x_13_29
 x_13_30 x_13_31 x_13_32 x_13_36 x_13_43 x_13_45 x_13_47 x_14_23 x_14_24
 x_14_25 x_14_31 x_14_47 x_15_17 x_15_20 x_15_22 x_15_30 x_15_31 x_15_34
 x_15_42 x_15_48 x_16_17 x_16_18 x_16_19 x_16_21 x_16_29 x_16_32 x_16_39
 x_16_40 x_16_41 x_16_42 x_17_19 x_17_20 x_17_26 x_17_30 x_17_38 x_17_39
 x_17_41 x_17_42 x_17_44 x_17_45 x_17_48 x_17_49 x_18_19 x_18_22 x_18_23
 x_18_25 x_18_26 x_18_27 x_18_31 x_18_33 x_18_34 x_18_40 x_18_43 x_18_46
 x_19_21 x_19_22 x_19_23 x_19_26 x_19_28 x_19_29 x_19_39 x_19_41 x_19_42
 x_19_43 x_19_44 x_19_47 x_19_48 x_19_49 x_20_25 x_20_26 x_20_27 x_20_30
 x_20_31 x_20_33 x_20_34 x_20_45 x_20_47 x_20_49 x_21_22 x_21_28 x_21_31
 x_21_35 x_21_38 x_21_41 x_21_49 x_22_23 x_22_29 x_22_31 x_22_32 x_22_35
 x_22_41 x_22_43 x_22_44 x_22_47 x_23_26 x_23_28 x_23_34 x_23_43 x_23_44
 x_23_48 x_24_25 x_24_26 x_24_32 x_24_36 x_24_37 x_24_39 x_24_40 x_24_42
 x_24_46 x_24_47 x_24_48 x_25_27 x_25_31 x_25_33 x_25_37 x_25_38 x_25_39
 x_25_43 x_25_44 x_26_29 x_26_35 x_26_38 x_26_40 x_26_42 x_26_43 x_26_44
 x_27_31 x_27_36 x_27_39 x_27_40 x_27_41 x_27_42 x_27_45 x_27_48 x_28_29
 x_28_30 x_28_35 x_28_36 x_28_37 x_28_40 x_28_47 x_29_30 x_29_31 x_29_32
 x_29_33 x_29_41 x_29_44 x_29_48 x_30_31 x_30_35 x_30_37 x_30_39 x_30_42
 x_30_44 x_30_46 x_30_48 x_31_32 x_31_33 x_31_34 x_31_35 x_31_38 x_31_41
 x_32_42 x_32_44 x_32_46 x_32_47 x_32_48 x_33_35 x_33_36 x_33_37 x_33_38
 x_33_43 x_33_44 x_33_49 x_34_35 x_34_36 x_34_40 x_34_45 x_34_46 x_34_47
 x_35_40 x_35_42 x_35_45 x_36_38 x_36_41 x_36_44 x_36_48 x_36_49 x_37_38
 x_37_42 x_37_47 x_37_48 x_37_49 x_38_41 x_38_48 x_39_40 x_39_41 x_39_49
 x_40_41 x_40_45 x_41_44 x_41_46 x_42_45 x_43_44 x_43_49 x_44_46 x_44_47
 x_45_47 x_46_47 x_46_48 x_48_49
End
